p cnf 51 66                 
7 23 0
-4 23 0
8 24 0
-5 24 0
9 25 0
-6 25 0
-23 -24 -25 26 0
-26 -27 0
-8 -7 -10 0
10 -14 0
-7 11 0
-8 11 0
7 8 -11 0
-11 -9 -12 0
12 -14 0
9 11 -13 0
13 -14 0
14 -27 0
-1 4 -15 0
15 -18 0
-2 5 -16 0
16 -18 0
-3 6 -17 0
17 -18 0
18 -27 0
-7 1 -19 0
19 -22 0
-8 2 -20 0
20 -22 0
-9 3 -21 0
21 -22 0
22 -27 0
-1 2 -28 0
28 -38 0
-1 -2 29 0
1 2 29 0
-2 2 29 0
-4 5 -30 0
-29 30 -31 0
31 -38 0
-4 -5 32 0
4 5 32 0
-5 5 32 0
-29 -32 33 0
-7 8 -34 0
-33 34 -35 0
35 -38 0
38 -50 0
-2 3 -39 0
39 -49 0
-2 -3 40 0
2 3 40 0
-3 3 40 0
-5 6 -41 0
-40 41 -42 0
42 -49 0
-5 -6 43 0
5 6 43 0
-6 6 43 0
-40 -43 44 0
-8 9 -45 0
-44 45 -46 0
46 -49 0
49 -50 0
27 0
50 0
